min
 + c1Usec1 - p1c1Conserve + c1Usec2 - p1c2Conserve + c1Usec3 - p1c3Conserve + c1Usec4 - p1c4Conserve + c1Usec6 - p1c6Conserve + c1Usec7 - p1c7Conserve + c1Usec8 - p1c8Conserve + c1Usec9 - p1c9Conserve + c1Usec11 - p1c11Conserve + c1Usec12 - p1c12Conserve + c1Usec13 - p1c13Conserve + c1Usec14 - p1c14Conserve + c1Usec16 - p1c16Conserve + c1Usec17 - p1c17Conserve + c1Usec18 - p1c18Conserve + c1Usec19 - p1c19Conserve
SUBJECT TO
 + p0Useex0y0s0t1 + p0Useex0y0s1t0 + 2 p0Useex0y1s1t1 + p0Useex1y0s1t1 - 2 c0Usec1 = 0
 + p0Useex0y1s0t2 + 2 p0Useex0y1s1t1 + p0Useex0y2s1t2 + p0Useex1y1s1t2 - 2 c0Usec2 = 0
 + p0Useex0y2s0t3 + p0Useex0y2s1t2 + p0Useex0y3s1t3 + p0Useex1y2s1t3 - 2 c0Usec3 = 0
 + p0Useex0y3s0t4 + p0Useex0y3s1t3 + p0Useex0y4s1t4 + p0Useex1y3s1t4 - 2 c0Usec4 = 0
 + p0Useex1y0s1t1 + p0Useex1y0s2t0 + p0Useex1y1s2t1 + p0Useex2y0s2t1 - 2 c0Usec6 = 0
 + p0Useex1y1s1t2 + p0Useex1y1s2t1 + p0Useex1y2s2t2 + p0Useex2y1s2t2 - 2 c0Usec7 = 0
 + p0Useex1y2s1t3 + p0Useex1y2s2t2 + p0Useex1y3s2t3 + p0Useex2y2s2t3 - 2 c0Usec8 = 0
 + p0Useex1y3s1t4 + p0Useex1y3s2t3 + p0Useex1y4s2t4 + p0Useex2y3s2t4 - 2 c0Usec9 = 0
 + p0Useex2y0s2t1 + p0Useex2y0s3t0 + p0Useex2y1s3t1 + p0Useex3y0s3t1 - 2 c0Usec11 = 0
 + p0Useex2y1s2t2 + p0Useex2y1s3t1 + p0Useex2y2s3t2 + p0Useex3y1s3t2 - 2 c0Usec12 = 0
 + p0Useex2y2s2t3 + p0Useex2y2s3t2 + p0Useex2y3s3t3 + p0Useex3y2s3t3 - 2 c0Usec13 = 0
 + p0Useex2y3s2t4 + p0Useex2y3s3t3 + p0Useex2y4s3t4 + p0Useex3y3s3t4 - 2 c0Usec14 = 0
 + p0Useex3y0s3t1 + p0Useex3y0s4t0 + p0Useex3y1s4t1 + p0Useex4y0s4t1 - 2 c0Usec16 = 0
 + p0Useex3y1s3t2 + p0Useex3y1s4t1 + p0Useex3y2s4t2 + p0Useex4y1s4t2 - 2 c0Usec17 = 0
 + p0Useex3y2s3t3 + p0Useex3y2s4t2 + p0Useex3y3s4t3 + p0Useex4y2s4t3 - 2 c0Usec18 = 0
 + p0Useex3y3s3t4 + p0Useex3y3s4t3 + p0Useex3y4s4t4 + p0Useex4y3s4t4 - 2 c0Usec19 = 0
 + p0Useex0y0s1t0 + p0Useex0y0s0t1 + p0Useex0y1s0t2 + p0Useex0y2s0t3 + p0Useex0y3s0t4 + p0Useex0y4s1t4 + p0Useex1y0s2t0 + p0Useex1y4s2t4 + p0Useex2y0s3t0 + p0Useex2y4s3t4 + p0Useex3y0s4t0 + p0Useex3y4s4t4 + p0Useex4y0s4t1 + p0Useex4y1s4t2 + p0Useex4y2s4t3 + p0Useex4y3s4t4 - 2 c0Usec0 = 0
p0nx0y0reachnx0y0 = 1
p0nx0y0reachnx4y0 = 0
p0nx0y0reachnx4y4 = 0
p0nx0y0reachnx0y0 - p0nx0y0reachnx1y0 - 10000 p0Useex0y0s1t0 <= 0
p0nx0y0reachnx0y0 - p0nx0y0reachnx1y0 + 10000 p0Useex0y0s1t0 >= 0
p0nx0y0reachnx0y0 + p0nx0y0reachnx1y0 - 10000 p0Useex0y0s1t0 >= -9999
p0nx0y0reachnx0y0 + p0nx0y0reachnx1y0 + 10000 p0Useex0y0s1t0 <= 10001
p0nx0y0reachnx0y0 - p0nx0y0reachnx0y1 - 10000 p0Useex0y0s0t1 <= 0
p0nx0y0reachnx0y0 - p0nx0y0reachnx0y1 + 10000 p0Useex0y0s0t1 >= 0
p0nx0y0reachnx0y0 + p0nx0y0reachnx0y1 - 10000 p0Useex0y0s0t1 >= -9999
p0nx0y0reachnx0y0 + p0nx0y0reachnx0y1 + 10000 p0Useex0y0s0t1 <= 10001
p0nx0y0reachnx0y1 - p0nx0y0reachnx1y1 - 10000 p0Useex0y1s1t1 <= 0
p0nx0y0reachnx0y1 - p0nx0y0reachnx1y1 + 10000 p0Useex0y1s1t1 >= 0
p0nx0y0reachnx0y1 + p0nx0y0reachnx1y1 - 10000 p0Useex0y1s1t1 >= -9999
p0nx0y0reachnx0y1 + p0nx0y0reachnx1y1 + 10000 p0Useex0y1s1t1 <= 10001
p0nx0y0reachnx0y1 - p0nx0y0reachnx0y2 - 10000 p0Useex0y1s0t2 <= 0
p0nx0y0reachnx0y1 - p0nx0y0reachnx0y2 + 10000 p0Useex0y1s0t2 >= 0
p0nx0y0reachnx0y1 + p0nx0y0reachnx0y2 - 10000 p0Useex0y1s0t2 >= -9999
p0nx0y0reachnx0y1 + p0nx0y0reachnx0y2 + 10000 p0Useex0y1s0t2 <= 10001
p0nx0y0reachnx0y2 - p0nx0y0reachnx1y2 - 10000 p0Useex0y2s1t2 <= 0
p0nx0y0reachnx0y2 - p0nx0y0reachnx1y2 + 10000 p0Useex0y2s1t2 >= 0
p0nx0y0reachnx0y2 + p0nx0y0reachnx1y2 - 10000 p0Useex0y2s1t2 >= -9999
p0nx0y0reachnx0y2 + p0nx0y0reachnx1y2 + 10000 p0Useex0y2s1t2 <= 10001
p0nx0y0reachnx0y2 - p0nx0y0reachnx0y3 - 10000 p0Useex0y2s0t3 <= 0
p0nx0y0reachnx0y2 - p0nx0y0reachnx0y3 + 10000 p0Useex0y2s0t3 >= 0
p0nx0y0reachnx0y2 + p0nx0y0reachnx0y3 - 10000 p0Useex0y2s0t3 >= -9999
p0nx0y0reachnx0y2 + p0nx0y0reachnx0y3 + 10000 p0Useex0y2s0t3 <= 10001
p0nx0y0reachnx0y3 - p0nx0y0reachnx1y3 - 10000 p0Useex0y3s1t3 <= 0
p0nx0y0reachnx0y3 - p0nx0y0reachnx1y3 + 10000 p0Useex0y3s1t3 >= 0
p0nx0y0reachnx0y3 + p0nx0y0reachnx1y3 - 10000 p0Useex0y3s1t3 >= -9999
p0nx0y0reachnx0y3 + p0nx0y0reachnx1y3 + 10000 p0Useex0y3s1t3 <= 10001
p0nx0y0reachnx0y3 - p0nx0y0reachnx0y4 - 10000 p0Useex0y3s0t4 <= 0
p0nx0y0reachnx0y3 - p0nx0y0reachnx0y4 + 10000 p0Useex0y3s0t4 >= 0
p0nx0y0reachnx0y3 + p0nx0y0reachnx0y4 - 10000 p0Useex0y3s0t4 >= -9999
p0nx0y0reachnx0y3 + p0nx0y0reachnx0y4 + 10000 p0Useex0y3s0t4 <= 10001
p0nx0y0reachnx0y4 - p0nx0y0reachnx1y4 - 10000 p0Useex0y4s1t4 <= 0
p0nx0y0reachnx0y4 - p0nx0y0reachnx1y4 + 10000 p0Useex0y4s1t4 >= 0
p0nx0y0reachnx0y4 + p0nx0y0reachnx1y4 - 10000 p0Useex0y4s1t4 >= -9999
p0nx0y0reachnx0y4 + p0nx0y0reachnx1y4 + 10000 p0Useex0y4s1t4 <= 10001
p0nx0y0reachnx1y0 - p0nx0y0reachnx2y0 - 10000 p0Useex1y0s2t0 <= 0
p0nx0y0reachnx1y0 - p0nx0y0reachnx2y0 + 10000 p0Useex1y0s2t0 >= 0
p0nx0y0reachnx1y0 + p0nx0y0reachnx2y0 - 10000 p0Useex1y0s2t0 >= -9999
p0nx0y0reachnx1y0 + p0nx0y0reachnx2y0 + 10000 p0Useex1y0s2t0 <= 10001
p0nx0y0reachnx1y0 - p0nx0y0reachnx1y1 - 10000 p0Useex1y0s1t1 <= 0
p0nx0y0reachnx1y0 - p0nx0y0reachnx1y1 + 10000 p0Useex1y0s1t1 >= 0
p0nx0y0reachnx1y0 + p0nx0y0reachnx1y1 - 10000 p0Useex1y0s1t1 >= -9999
p0nx0y0reachnx1y0 + p0nx0y0reachnx1y1 + 10000 p0Useex1y0s1t1 <= 10001
p0nx0y0reachnx1y1 - p0nx0y0reachnx2y1 - 10000 p0Useex1y1s2t1 <= 0
p0nx0y0reachnx1y1 - p0nx0y0reachnx2y1 + 10000 p0Useex1y1s2t1 >= 0
p0nx0y0reachnx1y1 + p0nx0y0reachnx2y1 - 10000 p0Useex1y1s2t1 >= -9999
p0nx0y0reachnx1y1 + p0nx0y0reachnx2y1 + 10000 p0Useex1y1s2t1 <= 10001
p0nx0y0reachnx1y1 - p0nx0y0reachnx1y2 - 10000 p0Useex1y1s1t2 <= 0
p0nx0y0reachnx1y1 - p0nx0y0reachnx1y2 + 10000 p0Useex1y1s1t2 >= 0
p0nx0y0reachnx1y1 + p0nx0y0reachnx1y2 - 10000 p0Useex1y1s1t2 >= -9999
p0nx0y0reachnx1y1 + p0nx0y0reachnx1y2 + 10000 p0Useex1y1s1t2 <= 10001
p0nx0y0reachnx1y2 - p0nx0y0reachnx2y2 - 10000 p0Useex1y2s2t2 <= 0
p0nx0y0reachnx1y2 - p0nx0y0reachnx2y2 + 10000 p0Useex1y2s2t2 >= 0
p0nx0y0reachnx1y2 + p0nx0y0reachnx2y2 - 10000 p0Useex1y2s2t2 >= -9999
p0nx0y0reachnx1y2 + p0nx0y0reachnx2y2 + 10000 p0Useex1y2s2t2 <= 10001
p0nx0y0reachnx1y2 - p0nx0y0reachnx1y3 - 10000 p0Useex1y2s1t3 <= 0
p0nx0y0reachnx1y2 - p0nx0y0reachnx1y3 + 10000 p0Useex1y2s1t3 >= 0
p0nx0y0reachnx1y2 + p0nx0y0reachnx1y3 - 10000 p0Useex1y2s1t3 >= -9999
p0nx0y0reachnx1y2 + p0nx0y0reachnx1y3 + 10000 p0Useex1y2s1t3 <= 10001
p0nx0y0reachnx1y3 - p0nx0y0reachnx2y3 - 10000 p0Useex1y3s2t3 <= 0
p0nx0y0reachnx1y3 - p0nx0y0reachnx2y3 + 10000 p0Useex1y3s2t3 >= 0
p0nx0y0reachnx1y3 + p0nx0y0reachnx2y3 - 10000 p0Useex1y3s2t3 >= -9999
p0nx0y0reachnx1y3 + p0nx0y0reachnx2y3 + 10000 p0Useex1y3s2t3 <= 10001
p0nx0y0reachnx1y3 - p0nx0y0reachnx1y4 - 10000 p0Useex1y3s1t4 <= 0
p0nx0y0reachnx1y3 - p0nx0y0reachnx1y4 + 10000 p0Useex1y3s1t4 >= 0
p0nx0y0reachnx1y3 + p0nx0y0reachnx1y4 - 10000 p0Useex1y3s1t4 >= -9999
p0nx0y0reachnx1y3 + p0nx0y0reachnx1y4 + 10000 p0Useex1y3s1t4 <= 10001
p0nx0y0reachnx1y4 - p0nx0y0reachnx2y4 - 10000 p0Useex1y4s2t4 <= 0
p0nx0y0reachnx1y4 - p0nx0y0reachnx2y4 + 10000 p0Useex1y4s2t4 >= 0
p0nx0y0reachnx1y4 + p0nx0y0reachnx2y4 - 10000 p0Useex1y4s2t4 >= -9999
p0nx0y0reachnx1y4 + p0nx0y0reachnx2y4 + 10000 p0Useex1y4s2t4 <= 10001
p0nx0y0reachnx2y0 - p0nx0y0reachnx3y0 - 10000 p0Useex2y0s3t0 <= 0
p0nx0y0reachnx2y0 - p0nx0y0reachnx3y0 + 10000 p0Useex2y0s3t0 >= 0
p0nx0y0reachnx2y0 + p0nx0y0reachnx3y0 - 10000 p0Useex2y0s3t0 >= -9999
p0nx0y0reachnx2y0 + p0nx0y0reachnx3y0 + 10000 p0Useex2y0s3t0 <= 10001
p0nx0y0reachnx2y0 - p0nx0y0reachnx2y1 - 10000 p0Useex2y0s2t1 <= 0
p0nx0y0reachnx2y0 - p0nx0y0reachnx2y1 + 10000 p0Useex2y0s2t1 >= 0
p0nx0y0reachnx2y0 + p0nx0y0reachnx2y1 - 10000 p0Useex2y0s2t1 >= -9999
p0nx0y0reachnx2y0 + p0nx0y0reachnx2y1 + 10000 p0Useex2y0s2t1 <= 10001
p0nx0y0reachnx2y1 - p0nx0y0reachnx3y1 - 10000 p0Useex2y1s3t1 <= 0
p0nx0y0reachnx2y1 - p0nx0y0reachnx3y1 + 10000 p0Useex2y1s3t1 >= 0
p0nx0y0reachnx2y1 + p0nx0y0reachnx3y1 - 10000 p0Useex2y1s3t1 >= -9999
p0nx0y0reachnx2y1 + p0nx0y0reachnx3y1 + 10000 p0Useex2y1s3t1 <= 10001
p0nx0y0reachnx2y1 - p0nx0y0reachnx2y2 - 10000 p0Useex2y1s2t2 <= 0
p0nx0y0reachnx2y1 - p0nx0y0reachnx2y2 + 10000 p0Useex2y1s2t2 >= 0
p0nx0y0reachnx2y1 + p0nx0y0reachnx2y2 - 10000 p0Useex2y1s2t2 >= -9999
p0nx0y0reachnx2y1 + p0nx0y0reachnx2y2 + 10000 p0Useex2y1s2t2 <= 10001
p0nx0y0reachnx2y2 - p0nx0y0reachnx3y2 - 10000 p0Useex2y2s3t2 <= 0
p0nx0y0reachnx2y2 - p0nx0y0reachnx3y2 + 10000 p0Useex2y2s3t2 >= 0
p0nx0y0reachnx2y2 + p0nx0y0reachnx3y2 - 10000 p0Useex2y2s3t2 >= -9999
p0nx0y0reachnx2y2 + p0nx0y0reachnx3y2 + 10000 p0Useex2y2s3t2 <= 10001
p0nx0y0reachnx2y2 - p0nx0y0reachnx2y3 - 10000 p0Useex2y2s2t3 <= 0
p0nx0y0reachnx2y2 - p0nx0y0reachnx2y3 + 10000 p0Useex2y2s2t3 >= 0
p0nx0y0reachnx2y2 + p0nx0y0reachnx2y3 - 10000 p0Useex2y2s2t3 >= -9999
p0nx0y0reachnx2y2 + p0nx0y0reachnx2y3 + 10000 p0Useex2y2s2t3 <= 10001
p0nx0y0reachnx2y3 - p0nx0y0reachnx3y3 - 10000 p0Useex2y3s3t3 <= 0
p0nx0y0reachnx2y3 - p0nx0y0reachnx3y3 + 10000 p0Useex2y3s3t3 >= 0
p0nx0y0reachnx2y3 + p0nx0y0reachnx3y3 - 10000 p0Useex2y3s3t3 >= -9999
p0nx0y0reachnx2y3 + p0nx0y0reachnx3y3 + 10000 p0Useex2y3s3t3 <= 10001
p0nx0y0reachnx2y3 - p0nx0y0reachnx2y4 - 10000 p0Useex2y3s2t4 <= 0
p0nx0y0reachnx2y3 - p0nx0y0reachnx2y4 + 10000 p0Useex2y3s2t4 >= 0
p0nx0y0reachnx2y3 + p0nx0y0reachnx2y4 - 10000 p0Useex2y3s2t4 >= -9999
p0nx0y0reachnx2y3 + p0nx0y0reachnx2y4 + 10000 p0Useex2y3s2t4 <= 10001
p0nx0y0reachnx2y4 - p0nx0y0reachnx3y4 - 10000 p0Useex2y4s3t4 <= 0
p0nx0y0reachnx2y4 - p0nx0y0reachnx3y4 + 10000 p0Useex2y4s3t4 >= 0
p0nx0y0reachnx2y4 + p0nx0y0reachnx3y4 - 10000 p0Useex2y4s3t4 >= -9999
p0nx0y0reachnx2y4 + p0nx0y0reachnx3y4 + 10000 p0Useex2y4s3t4 <= 10001
p0nx0y0reachnx3y0 - p0nx0y0reachnx4y0 - 10000 p0Useex3y0s4t0 <= 0
p0nx0y0reachnx3y0 - p0nx0y0reachnx4y0 + 10000 p0Useex3y0s4t0 >= 0
p0nx0y0reachnx3y0 + p0nx0y0reachnx4y0 - 10000 p0Useex3y0s4t0 >= -9999
p0nx0y0reachnx3y0 + p0nx0y0reachnx4y0 + 10000 p0Useex3y0s4t0 <= 10001
p0nx0y0reachnx3y0 - p0nx0y0reachnx3y1 - 10000 p0Useex3y0s3t1 <= 0
p0nx0y0reachnx3y0 - p0nx0y0reachnx3y1 + 10000 p0Useex3y0s3t1 >= 0
p0nx0y0reachnx3y0 + p0nx0y0reachnx3y1 - 10000 p0Useex3y0s3t1 >= -9999
p0nx0y0reachnx3y0 + p0nx0y0reachnx3y1 + 10000 p0Useex3y0s3t1 <= 10001
p0nx0y0reachnx3y1 - p0nx0y0reachnx4y1 - 10000 p0Useex3y1s4t1 <= 0
p0nx0y0reachnx3y1 - p0nx0y0reachnx4y1 + 10000 p0Useex3y1s4t1 >= 0
p0nx0y0reachnx3y1 + p0nx0y0reachnx4y1 - 10000 p0Useex3y1s4t1 >= -9999
p0nx0y0reachnx3y1 + p0nx0y0reachnx4y1 + 10000 p0Useex3y1s4t1 <= 10001
p0nx0y0reachnx3y1 - p0nx0y0reachnx3y2 - 10000 p0Useex3y1s3t2 <= 0
p0nx0y0reachnx3y1 - p0nx0y0reachnx3y2 + 10000 p0Useex3y1s3t2 >= 0
p0nx0y0reachnx3y1 + p0nx0y0reachnx3y2 - 10000 p0Useex3y1s3t2 >= -9999
p0nx0y0reachnx3y1 + p0nx0y0reachnx3y2 + 10000 p0Useex3y1s3t2 <= 10001
p0nx0y0reachnx3y2 - p0nx0y0reachnx4y2 - 10000 p0Useex3y2s4t2 <= 0
p0nx0y0reachnx3y2 - p0nx0y0reachnx4y2 + 10000 p0Useex3y2s4t2 >= 0
p0nx0y0reachnx3y2 + p0nx0y0reachnx4y2 - 10000 p0Useex3y2s4t2 >= -9999
p0nx0y0reachnx3y2 + p0nx0y0reachnx4y2 + 10000 p0Useex3y2s4t2 <= 10001
p0nx0y0reachnx3y2 - p0nx0y0reachnx3y3 - 10000 p0Useex3y2s3t3 <= 0
p0nx0y0reachnx3y2 - p0nx0y0reachnx3y3 + 10000 p0Useex3y2s3t3 >= 0
p0nx0y0reachnx3y2 + p0nx0y0reachnx3y3 - 10000 p0Useex3y2s3t3 >= -9999
p0nx0y0reachnx3y2 + p0nx0y0reachnx3y3 + 10000 p0Useex3y2s3t3 <= 10001
p0nx0y0reachnx3y3 - p0nx0y0reachnx4y3 - 10000 p0Useex3y3s4t3 <= 0
p0nx0y0reachnx3y3 - p0nx0y0reachnx4y3 + 10000 p0Useex3y3s4t3 >= 0
p0nx0y0reachnx3y3 + p0nx0y0reachnx4y3 - 10000 p0Useex3y3s4t3 >= -9999
p0nx0y0reachnx3y3 + p0nx0y0reachnx4y3 + 10000 p0Useex3y3s4t3 <= 10001
p0nx0y0reachnx3y3 - p0nx0y0reachnx3y4 - 10000 p0Useex3y3s3t4 <= 0
p0nx0y0reachnx3y3 - p0nx0y0reachnx3y4 + 10000 p0Useex3y3s3t4 >= 0
p0nx0y0reachnx3y3 + p0nx0y0reachnx3y4 - 10000 p0Useex3y3s3t4 >= -9999
p0nx0y0reachnx3y3 + p0nx0y0reachnx3y4 + 10000 p0Useex3y3s3t4 <= 10001
p0nx0y0reachnx3y4 - p0nx0y0reachnx4y4 - 10000 p0Useex3y4s4t4 <= 0
p0nx0y0reachnx3y4 - p0nx0y0reachnx4y4 + 10000 p0Useex3y4s4t4 >= 0
p0nx0y0reachnx3y4 + p0nx0y0reachnx4y4 - 10000 p0Useex3y4s4t4 >= -9999
p0nx0y0reachnx3y4 + p0nx0y0reachnx4y4 + 10000 p0Useex3y4s4t4 <= 10001
p0nx0y0reachnx4y0 - p0nx0y0reachnx4y1 - 10000 p0Useex4y0s4t1 <= 0
p0nx0y0reachnx4y0 - p0nx0y0reachnx4y1 + 10000 p0Useex4y0s4t1 >= 0
p0nx0y0reachnx4y0 + p0nx0y0reachnx4y1 - 10000 p0Useex4y0s4t1 >= -9999
p0nx0y0reachnx4y0 + p0nx0y0reachnx4y1 + 10000 p0Useex4y0s4t1 <= 10001
p0nx0y0reachnx4y1 - p0nx0y0reachnx4y2 - 10000 p0Useex4y1s4t2 <= 0
p0nx0y0reachnx4y1 - p0nx0y0reachnx4y2 + 10000 p0Useex4y1s4t2 >= 0
p0nx0y0reachnx4y1 + p0nx0y0reachnx4y2 - 10000 p0Useex4y1s4t2 >= -9999
p0nx0y0reachnx4y1 + p0nx0y0reachnx4y2 + 10000 p0Useex4y1s4t2 <= 10001
p0nx0y0reachnx4y2 - p0nx0y0reachnx4y3 - 10000 p0Useex4y2s4t3 <= 0
p0nx0y0reachnx4y2 - p0nx0y0reachnx4y3 + 10000 p0Useex4y2s4t3 >= 0
p0nx0y0reachnx4y2 + p0nx0y0reachnx4y3 - 10000 p0Useex4y2s4t3 >= -9999
p0nx0y0reachnx4y2 + p0nx0y0reachnx4y3 + 10000 p0Useex4y2s4t3 <= 10001
p0nx0y0reachnx4y3 - p0nx0y0reachnx4y4 - 10000 p0Useex4y3s4t4 <= 0
p0nx0y0reachnx4y3 - p0nx0y0reachnx4y4 + 10000 p0Useex4y3s4t4 >= 0
p0nx0y0reachnx4y3 + p0nx0y0reachnx4y4 - 10000 p0Useex4y3s4t4 >= -9999
p0nx0y0reachnx4y3 + p0nx0y0reachnx4y4 + 10000 p0Useex4y3s4t4 <= 10001
 + p1HeadUsec1 + p1HeadUsec2 + p1HeadUsec3 + p1HeadUsec4 + p1HeadUsec6 + p1HeadUsec7 + p1HeadUsec8 + p1HeadUsec9 + p1HeadUsec11 + p1HeadUsec12 + p1HeadUsec13 + p1HeadUsec14 + p1HeadUsec16 + p1HeadUsec17 + p1HeadUsec18 + p1HeadUsec19 + p1HeadUsec0 = 1
p1Flowex0y0s1t0 - 10000 p1Useex0y0s1t0 <= 0
p1Flowex0y0s1t0 + 10000 p1Useex0y0s1t0 >= 0
p1Flowex0y0s0t1 - 10000 p1Useex0y0s0t1 <= 0
p1Flowex0y0s0t1 + 10000 p1Useex0y0s0t1 >= 0
p1Flowex0y1s1t1 - 10000 p1Useex0y1s1t1 <= 0
p1Flowex0y1s1t1 + 10000 p1Useex0y1s1t1 >= 0
p1Flowex0y1s0t2 - 10000 p1Useex0y1s0t2 <= 0
p1Flowex0y1s0t2 + 10000 p1Useex0y1s0t2 >= 0
p1Flowex0y2s1t2 - 10000 p1Useex0y2s1t2 <= 0
p1Flowex0y2s1t2 + 10000 p1Useex0y2s1t2 >= 0
p1Flowex0y2s0t3 - 10000 p1Useex0y2s0t3 <= 0
p1Flowex0y2s0t3 + 10000 p1Useex0y2s0t3 >= 0
p1Flowex0y3s1t3 - 10000 p1Useex0y3s1t3 <= 0
p1Flowex0y3s1t3 + 10000 p1Useex0y3s1t3 >= 0
p1Flowex0y3s0t4 - 10000 p1Useex0y3s0t4 <= 0
p1Flowex0y3s0t4 + 10000 p1Useex0y3s0t4 >= 0
p1Flowex0y4s1t4 - 10000 p1Useex0y4s1t4 <= 0
p1Flowex0y4s1t4 + 10000 p1Useex0y4s1t4 >= 0
p1Flowex1y0s2t0 - 10000 p1Useex1y0s2t0 <= 0
p1Flowex1y0s2t0 + 10000 p1Useex1y0s2t0 >= 0
p1Flowex1y0s1t1 - 10000 p1Useex1y0s1t1 <= 0
p1Flowex1y0s1t1 + 10000 p1Useex1y0s1t1 >= 0
p1Flowex1y1s2t1 - 10000 p1Useex1y1s2t1 <= 0
p1Flowex1y1s2t1 + 10000 p1Useex1y1s2t1 >= 0
p1Flowex1y1s1t2 - 10000 p1Useex1y1s1t2 <= 0
p1Flowex1y1s1t2 + 10000 p1Useex1y1s1t2 >= 0
p1Flowex1y2s2t2 - 10000 p1Useex1y2s2t2 <= 0
p1Flowex1y2s2t2 + 10000 p1Useex1y2s2t2 >= 0
p1Flowex1y2s1t3 - 10000 p1Useex1y2s1t3 <= 0
p1Flowex1y2s1t3 + 10000 p1Useex1y2s1t3 >= 0
p1Flowex1y3s2t3 - 10000 p1Useex1y3s2t3 <= 0
p1Flowex1y3s2t3 + 10000 p1Useex1y3s2t3 >= 0
p1Flowex1y3s1t4 - 10000 p1Useex1y3s1t4 <= 0
p1Flowex1y3s1t4 + 10000 p1Useex1y3s1t4 >= 0
p1Flowex1y4s2t4 - 10000 p1Useex1y4s2t4 <= 0
p1Flowex1y4s2t4 + 10000 p1Useex1y4s2t4 >= 0
p1Flowex2y0s3t0 - 10000 p1Useex2y0s3t0 <= 0
p1Flowex2y0s3t0 + 10000 p1Useex2y0s3t0 >= 0
p1Flowex2y0s2t1 - 10000 p1Useex2y0s2t1 <= 0
p1Flowex2y0s2t1 + 10000 p1Useex2y0s2t1 >= 0
p1Flowex2y1s3t1 - 10000 p1Useex2y1s3t1 <= 0
p1Flowex2y1s3t1 + 10000 p1Useex2y1s3t1 >= 0
p1Flowex2y1s2t2 - 10000 p1Useex2y1s2t2 <= 0
p1Flowex2y1s2t2 + 10000 p1Useex2y1s2t2 >= 0
p1Flowex2y2s3t2 - 10000 p1Useex2y2s3t2 <= 0
p1Flowex2y2s3t2 + 10000 p1Useex2y2s3t2 >= 0
p1Flowex2y2s2t3 - 10000 p1Useex2y2s2t3 <= 0
p1Flowex2y2s2t3 + 10000 p1Useex2y2s2t3 >= 0
p1Flowex2y3s3t3 - 10000 p1Useex2y3s3t3 <= 0
p1Flowex2y3s3t3 + 10000 p1Useex2y3s3t3 >= 0
p1Flowex2y3s2t4 - 10000 p1Useex2y3s2t4 <= 0
p1Flowex2y3s2t4 + 10000 p1Useex2y3s2t4 >= 0
p1Flowex2y4s3t4 - 10000 p1Useex2y4s3t4 <= 0
p1Flowex2y4s3t4 + 10000 p1Useex2y4s3t4 >= 0
p1Flowex3y0s4t0 - 10000 p1Useex3y0s4t0 <= 0
p1Flowex3y0s4t0 + 10000 p1Useex3y0s4t0 >= 0
p1Flowex3y0s3t1 - 10000 p1Useex3y0s3t1 <= 0
p1Flowex3y0s3t1 + 10000 p1Useex3y0s3t1 >= 0
p1Flowex3y1s4t1 - 10000 p1Useex3y1s4t1 <= 0
p1Flowex3y1s4t1 + 10000 p1Useex3y1s4t1 >= 0
p1Flowex3y1s3t2 - 10000 p1Useex3y1s3t2 <= 0
p1Flowex3y1s3t2 + 10000 p1Useex3y1s3t2 >= 0
p1Flowex3y2s4t2 - 10000 p1Useex3y2s4t2 <= 0
p1Flowex3y2s4t2 + 10000 p1Useex3y2s4t2 >= 0
p1Flowex3y2s3t3 - 10000 p1Useex3y2s3t3 <= 0
p1Flowex3y2s3t3 + 10000 p1Useex3y2s3t3 >= 0
p1Flowex3y3s4t3 - 10000 p1Useex3y3s4t3 <= 0
p1Flowex3y3s4t3 + 10000 p1Useex3y3s4t3 >= 0
p1Flowex3y3s3t4 - 10000 p1Useex3y3s3t4 <= 0
p1Flowex3y3s3t4 + 10000 p1Useex3y3s3t4 >= 0
p1Flowex3y4s4t4 - 10000 p1Useex3y4s4t4 <= 0
p1Flowex3y4s4t4 + 10000 p1Useex3y4s4t4 >= 0
p1Flowex4y0s4t1 - 10000 p1Useex4y0s4t1 <= 0
p1Flowex4y0s4t1 + 10000 p1Useex4y0s4t1 >= 0
p1Flowex4y1s4t2 - 10000 p1Useex4y1s4t2 <= 0
p1Flowex4y1s4t2 + 10000 p1Useex4y1s4t2 >= 0
p1Flowex4y2s4t3 - 10000 p1Useex4y2s4t3 <= 0
p1Flowex4y2s4t3 + 10000 p1Useex4y2s4t3 >= 0
p1Flowex4y3s4t4 - 10000 p1Useex4y3s4t4 <= 0
p1Flowex4y3s4t4 + 10000 p1Useex4y3s4t4 >= 0
p1c1SuperFlow + 10000 p1HeadUsec1 >= 0
p1c1SuperFlow - 10000 p1HeadUsec1 <= 0
 - p1Flowex0y0s0t1 - p1Flowex0y0s1t0 - p1Flowex0y1s1t1 - p1Flowex1y0s1t1 + p1c1SuperFlow - p1c1Conserve = 0
p1c2SuperFlow + 10000 p1HeadUsec2 >= 0
p1c2SuperFlow - 10000 p1HeadUsec2 <= 0
 - p1Flowex0y1s0t2 + p1Flowex0y1s1t1 - p1Flowex0y2s1t2 - p1Flowex1y1s1t2 + p1c2SuperFlow - p1c2Conserve = 0
p1c3SuperFlow + 10000 p1HeadUsec3 >= 0
p1c3SuperFlow - 10000 p1HeadUsec3 <= 0
 - p1Flowex0y2s0t3 + p1Flowex0y2s1t2 - p1Flowex0y3s1t3 - p1Flowex1y2s1t3 + p1c3SuperFlow - p1c3Conserve = 0
p1c4SuperFlow + 10000 p1HeadUsec4 >= 0
p1c4SuperFlow - 10000 p1HeadUsec4 <= 0
 - p1Flowex0y3s0t4 + p1Flowex0y3s1t3 - p1Flowex0y4s1t4 - p1Flowex1y3s1t4 + p1c4SuperFlow - p1c4Conserve = 0
p1c6SuperFlow + 10000 p1HeadUsec6 >= 0
p1c6SuperFlow - 10000 p1HeadUsec6 <= 0
 + p1Flowex1y0s1t1 - p1Flowex1y0s2t0 - p1Flowex1y1s2t1 - p1Flowex2y0s2t1 + p1c6SuperFlow - p1c6Conserve = 0
p1c7SuperFlow + 10000 p1HeadUsec7 >= 0
p1c7SuperFlow - 10000 p1HeadUsec7 <= 0
 + p1Flowex1y1s1t2 + p1Flowex1y1s2t1 - p1Flowex1y2s2t2 - p1Flowex2y1s2t2 + p1c7SuperFlow - p1c7Conserve = 0
p1c8SuperFlow + 10000 p1HeadUsec8 >= 0
p1c8SuperFlow - 10000 p1HeadUsec8 <= 0
 + p1Flowex1y2s1t3 + p1Flowex1y2s2t2 - p1Flowex1y3s2t3 - p1Flowex2y2s2t3 + p1c8SuperFlow - p1c8Conserve = 0
p1c9SuperFlow + 10000 p1HeadUsec9 >= 0
p1c9SuperFlow - 10000 p1HeadUsec9 <= 0
 + p1Flowex1y3s1t4 + p1Flowex1y3s2t3 - p1Flowex1y4s2t4 - p1Flowex2y3s2t4 + p1c9SuperFlow - p1c9Conserve = 0
p1c11SuperFlow + 10000 p1HeadUsec11 >= 0
p1c11SuperFlow - 10000 p1HeadUsec11 <= 0
 + p1Flowex2y0s2t1 - p1Flowex2y0s3t0 - p1Flowex2y1s3t1 - p1Flowex3y0s3t1 + p1c11SuperFlow - p1c11Conserve = 0
p1c12SuperFlow + 10000 p1HeadUsec12 >= 0
p1c12SuperFlow - 10000 p1HeadUsec12 <= 0
 + p1Flowex2y1s2t2 + p1Flowex2y1s3t1 - p1Flowex2y2s3t2 - p1Flowex3y1s3t2 + p1c12SuperFlow - p1c12Conserve = 0
p1c13SuperFlow + 10000 p1HeadUsec13 >= 0
p1c13SuperFlow - 10000 p1HeadUsec13 <= 0
 + p1Flowex2y2s2t3 + p1Flowex2y2s3t2 - p1Flowex2y3s3t3 - p1Flowex3y2s3t3 + p1c13SuperFlow - p1c13Conserve = 0
p1c14SuperFlow + 10000 p1HeadUsec14 >= 0
p1c14SuperFlow - 10000 p1HeadUsec14 <= 0
 + p1Flowex2y3s2t4 + p1Flowex2y3s3t3 - p1Flowex2y4s3t4 - p1Flowex3y3s3t4 + p1c14SuperFlow - p1c14Conserve = 0
p1c16SuperFlow + 10000 p1HeadUsec16 >= 0
p1c16SuperFlow - 10000 p1HeadUsec16 <= 0
 + p1Flowex3y0s3t1 - p1Flowex3y0s4t0 - p1Flowex3y1s4t1 - p1Flowex4y0s4t1 + p1c16SuperFlow - p1c16Conserve = 0
p1c17SuperFlow + 10000 p1HeadUsec17 >= 0
p1c17SuperFlow - 10000 p1HeadUsec17 <= 0
 + p1Flowex3y1s3t2 + p1Flowex3y1s4t1 - p1Flowex3y2s4t2 - p1Flowex4y1s4t2 + p1c17SuperFlow - p1c17Conserve = 0
p1c18SuperFlow + 10000 p1HeadUsec18 >= 0
p1c18SuperFlow - 10000 p1HeadUsec18 <= 0
 + p1Flowex3y2s3t3 + p1Flowex3y2s4t2 - p1Flowex3y3s4t3 - p1Flowex4y2s4t3 + p1c18SuperFlow - p1c18Conserve = 0
p1c19SuperFlow + 10000 p1HeadUsec19 >= 0
p1c19SuperFlow - 10000 p1HeadUsec19 <= 0
 + p1Flowex3y3s3t4 + p1Flowex3y3s4t3 - p1Flowex3y4s4t4 - p1Flowex4y3s4t4 + p1c19SuperFlow - p1c19Conserve = 0
p1Flowex0y0s1t0 = 0
p1Flowex0y0s0t1 = 0
p1Flowex0y1s0t2 = 0
p1Flowex0y2s0t3 = 0
p1Flowex0y3s0t4 = 0
p1Flowex0y4s1t4 = 0
p1Flowex1y0s2t0 = 0
p1Flowex1y4s2t4 = 0
p1Flowex2y0s3t0 = 0
p1Flowex2y4s3t4 = 0
p1Flowex3y0s4t0 = 0
p1Flowex3y4s4t4 = 0
p1Flowex4y0s4t1 = 0
p1Flowex4y1s4t2 = 0
p1Flowex4y2s4t3 = 0
p1Flowex4y3s4t4 = 0
Bounds
-10000 <= p1Flowex0y0s1t0 <= 10000
-10000 <= p1Flowex0y0s0t1 <= 10000
-10000 <= p1Flowex0y1s1t1 <= 10000
-10000 <= p1Flowex0y1s0t2 <= 10000
-10000 <= p1Flowex0y2s1t2 <= 10000
-10000 <= p1Flowex0y2s0t3 <= 10000
-10000 <= p1Flowex0y3s1t3 <= 10000
-10000 <= p1Flowex0y3s0t4 <= 10000
-10000 <= p1Flowex0y4s1t4 <= 10000
-10000 <= p1Flowex1y0s2t0 <= 10000
-10000 <= p1Flowex1y0s1t1 <= 10000
-10000 <= p1Flowex1y1s2t1 <= 10000
-10000 <= p1Flowex1y1s1t2 <= 10000
-10000 <= p1Flowex1y2s2t2 <= 10000
-10000 <= p1Flowex1y2s1t3 <= 10000
-10000 <= p1Flowex1y3s2t3 <= 10000
-10000 <= p1Flowex1y3s1t4 <= 10000
-10000 <= p1Flowex1y4s2t4 <= 10000
-10000 <= p1Flowex2y0s3t0 <= 10000
-10000 <= p1Flowex2y0s2t1 <= 10000
-10000 <= p1Flowex2y1s3t1 <= 10000
-10000 <= p1Flowex2y1s2t2 <= 10000
-10000 <= p1Flowex2y2s3t2 <= 10000
-10000 <= p1Flowex2y2s2t3 <= 10000
-10000 <= p1Flowex2y3s3t3 <= 10000
-10000 <= p1Flowex2y3s2t4 <= 10000
-10000 <= p1Flowex2y4s3t4 <= 10000
-10000 <= p1Flowex3y0s4t0 <= 10000
-10000 <= p1Flowex3y0s3t1 <= 10000
-10000 <= p1Flowex3y1s4t1 <= 10000
-10000 <= p1Flowex3y1s3t2 <= 10000
-10000 <= p1Flowex3y2s4t2 <= 10000
-10000 <= p1Flowex3y2s3t3 <= 10000
-10000 <= p1Flowex3y3s4t3 <= 10000
-10000 <= p1Flowex3y3s3t4 <= 10000
-10000 <= p1Flowex3y4s4t4 <= 10000
-10000 <= p1Flowex4y0s4t1 <= 10000
-10000 <= p1Flowex4y1s4t2 <= 10000
-10000 <= p1Flowex4y2s4t3 <= 10000
-10000 <= p1Flowex4y3s4t4 <= 10000
-1 <= p1c1Conserve <= 1
-10000 <= p1c1SuperFlow <= 10000
-1 <= p1c2Conserve <= 1
-10000 <= p1c2SuperFlow <= 10000
-1 <= p1c3Conserve <= 1
-10000 <= p1c3SuperFlow <= 10000
-1 <= p1c4Conserve <= 1
-10000 <= p1c4SuperFlow <= 10000
-1 <= p1c6Conserve <= 1
-10000 <= p1c6SuperFlow <= 10000
-1 <= p1c7Conserve <= 1
-10000 <= p1c7SuperFlow <= 10000
-1 <= p1c8Conserve <= 1
-10000 <= p1c8SuperFlow <= 10000
-1 <= p1c9Conserve <= 1
-10000 <= p1c9SuperFlow <= 10000
-1 <= p1c11Conserve <= 1
-10000 <= p1c11SuperFlow <= 10000
-1 <= p1c12Conserve <= 1
-10000 <= p1c12SuperFlow <= 10000
-1 <= p1c13Conserve <= 1
-10000 <= p1c13SuperFlow <= 10000
-1 <= p1c14Conserve <= 1
-10000 <= p1c14SuperFlow <= 10000
-1 <= p1c16Conserve <= 1
-10000 <= p1c16SuperFlow <= 10000
-1 <= p1c17Conserve <= 1
-10000 <= p1c17SuperFlow <= 10000
-1 <= p1c18Conserve <= 1
-10000 <= p1c18SuperFlow <= 10000
-1 <= p1c19Conserve <= 1
-10000 <= p1c19SuperFlow <= 10000
-1 <= p1c0Conserve <= 1
-10000 <= p1c0SuperFlow <= 10000
Binaries
c0Usec1
c0Usec2
c0Usec3
c0Usec4
c0Usec6
c0Usec7
c0Usec8
c0Usec9
c0Usec11
c0Usec12
c0Usec13
c0Usec14
c0Usec16
c0Usec17
c0Usec18
c0Usec19
c0Usec0
p0Useex0y0s1t0
p0Useex0y0s0t1
p0Useex0y1s1t1
p0Useex0y1s0t2
p0Useex0y2s1t2
p0Useex0y2s0t3
p0Useex0y3s1t3
p0Useex0y3s0t4
p0Useex0y4s1t4
p0Useex1y0s2t0
p0Useex1y0s1t1
p0Useex1y1s2t1
p0Useex1y1s1t2
p0Useex1y2s2t2
p0Useex1y2s1t3
p0Useex1y3s2t3
p0Useex1y3s1t4
p0Useex1y4s2t4
p0Useex2y0s3t0
p0Useex2y0s2t1
p0Useex2y1s3t1
p0Useex2y1s2t2
p0Useex2y2s3t2
p0Useex2y2s2t3
p0Useex2y3s3t3
p0Useex2y3s2t4
p0Useex2y4s3t4
p0Useex3y0s4t0
p0Useex3y0s3t1
p0Useex3y1s4t1
p0Useex3y1s3t2
p0Useex3y2s4t2
p0Useex3y2s3t3
p0Useex3y3s4t3
p0Useex3y3s3t4
p0Useex3y4s4t4
p0Useex4y0s4t1
p0Useex4y1s4t2
p0Useex4y2s4t3
p0Useex4y3s4t4
p0nx0y0reachnx0y0
p0nx0y0reachnx0y1
p0nx0y0reachnx0y2
p0nx0y0reachnx0y3
p0nx0y0reachnx0y4
p0nx0y0reachnx1y0
p0nx0y0reachnx1y1
p0nx0y0reachnx1y2
p0nx0y0reachnx1y3
p0nx0y0reachnx1y4
p0nx0y0reachnx2y0
p0nx0y0reachnx2y1
p0nx0y0reachnx2y2
p0nx0y0reachnx2y3
p0nx0y0reachnx2y4
p0nx0y0reachnx3y0
p0nx0y0reachnx3y1
p0nx0y0reachnx3y2
p0nx0y0reachnx3y3
p0nx0y0reachnx3y4
p0nx0y0reachnx4y0
p0nx0y0reachnx4y1
p0nx0y0reachnx4y2
p0nx0y0reachnx4y3
p0nx0y0reachnx4y4
p1HeadUsec1
p1HeadUsec2
p1HeadUsec3
p1HeadUsec4
p1HeadUsec6
p1HeadUsec7
p1HeadUsec8
p1HeadUsec9
p1HeadUsec11
p1HeadUsec12
p1HeadUsec13
p1HeadUsec14
p1HeadUsec16
p1HeadUsec17
p1HeadUsec18
p1HeadUsec19
p1HeadUsec0
